10J3M/DAT/10J3MNNX-12.dat
10 3
18.5202 4.3035
30.6444 5.5357
33.9453 5.8263
24.0613 4.9052
25.5719 5.0569
29.6896 5.4488
38.9799 6.2434
25.4955 5.0493
23.4514 4.8427
20.2605 4.5012
51.713