10J3M/SOL/10J3MNNX-12.sol
solution status: optimal solution found
objective value:                     85.7165333333333
x#1#2                                               1 	(obj:0)
x#2#1                                               1 	(obj:0)
x#3#3                                               1 	(obj:0)
x#4#2                                               1 	(obj:0)
x#5#1                                               1 	(obj:0)
x#6#3                                               1 	(obj:0)
x#7#2                               0.306131938390003 	(obj:0)
x#7#3                               0.693868061609997 	(obj:0)
x#8#1                             0.00173827090945592 	(obj:0)
x#8#2                               0.998261729090544 	(obj:0)
x#9#1                                               1 	(obj:0)
x#10#1                                              1 	(obj:0)
z                                    85.7165333333333 	(obj:1)
